(set-option :auto-config false)
(set-option :smt.mbqi true)
(set-option :smt.macro-finder true)
(declare-sort T0)
(declare-const l1 T0)
(declare-const l2 T0)
(declare-sort T1)
(declare-const x T1)
(declare-sort xs T0)
(declare-fun Rmem (T0 T1) Bool)
(declare-fun Rhd (T0 T1) Bool)
(declare-const phi1 Bool)
(declare-const phi2 Bool)
(declare-const phi3 Bool)
(declare-const phi4 Bool)
(declare-const vc1 Bool)
(assert (= phi1 (forall ((bv0 T1)) 
  (= (Rhd l1 bv0) false))))
(assert (= phi2 (forall ((bv0 T1)) 
  (= (Rmem l1 bv0) false))))
(assert (= phi3 (forall ((bv0 T1)) 
  (= (Rhd v bv0) (Rhd l2 bv0)))))
(assert (= phi4 (forall ((bv0 T1)) 
  (= (Rmem v bv0) (Rmem l2 bv0)))))
(assert (= vc1 (=> (and phi1 phi2)
                   (and phi3 phi4))))
(declare-const phi5 Bool)
(declare-const phi6 Bool)
(declare-const phi7 Bool)
(declare-const phi8 Bool)
(declare-const vc2 Bool)
(assert (= phi5 (forall ((bv0 T1)) 
  (= (Rhd l1 bv0) (= bv0 x)))))
(assert (= phi6 (forall ((bv0 T1)) 
  (= (Rmem l1 bv0) (= bv0 x)))))
(assert (= phi7 (forall ((bv0 T1)) 
  (= (Rhd v bv0) (= bv0 x)))))
(assert (= phi8 (forall ((bv0 T1)) 
  (= (Rmem v bv0) (= bv0 x)))))
(assert (= vc2 (=> (and phi5 phi6)
                   (and phi7 phi8))))
(assert (vc1 => vc2))
(check-sat)
(get-model)
